n_potions = 66;
alchemy = [4, 1, 4, 1, 1, 5, 4, 1, 5, 2, 4, 3, 4, 2, 5, 1, 4, 5, 1, 3, 5, 4, 3, 2, 5, 4, 1, 4, 5, 5, 4, 4, 1, 4, 4, 1, 3, 4, 3, 4, 4, 5, 4, 4, 3, 1, 2, 4, 3, 3, 2, 1, 5, 4, 2, 1, 3, 5, 1, 2, 3, 2, 2, 1, 3, 1];
n_days = 12;
min_potions = 5;
max_potions = 7;
min_alchemists = 5;
max_alchemists = 35;
prereqs = [|8,2
|8,6
|10,5
|11,5
|11,6
|13,8
|13,11
|14,3
|17,11
|18,10
|19,8
|19,11
|20,9
|21,10
|23,17
|23,18
|24,13
|24,19
|26,23
|32,9
|33,27
|35,17
|37,20
|37,35
|38,33
|39,35
|41,9
|41,17
|41,18
|43,20
|44,16
|45,38
|46,37
|47,42
|48,34
|49,30
|49,32
|50,43
|51,33
|53,47
|54,50
|55,43
|55,38
|56,51
|57,39
|57,34
|58,28
|59,55
|61,55
|65,59
|];
